40	100	100	100
60	92	89
82	86	77
51	97	98
67	75	73
76	51	71
97	50	52
54	54	92
98	64	92
58	56	70
58	61	93
97	99	54
89	53	77
66	92	90
81	55	56
67	73	67
51	75	58
88	92	97
65	69	63
69	73	80
88	74	67
61	67	89
69	77	70
97	76	65
85	54	53
99	58	88
60	98	63
79	76	85
97	96	76
65	82	61
84	75	98
90	97	52
79	92	92
95	70	54
80	94	57
92	64	69
58	68	55
83	92	62
99	87	78
98	69	78
92	67	84
